15
1 0 3
2 0 3
2 1 3
3 0 3
3 1 1
3 2 3
4 0 1
4 1 1
4 2 1
4 3 3
5 0 1
5 1 1
5 2 3
5 3 2
5 4 2
6 0 2
6 1 2
6 2 3
6 3 3
6 4 3
6 5 1
7 0 2
7 1 1
7 2 1
7 3 3
7 4 2
7 5 1
7 6 3
8 0 1
8 1 3
8 2 1
8 3 3
8 4 3
8 5 1
8 6 2
8 7 3
9 0 3
9 1 2
9 2 2
9 3 2
9 4 1
9 5 2
9 6 1
9 7 3
9 8 1
10 0 1
10 1 2
10 2 3
10 3 2
10 4 3
10 5 3
10 6 3
10 7 3
10 8 2
10 9 3
11 0 3
11 1 1
11 2 3
11 3 3
11 4 1
11 5 1
11 6 2
11 7 3
11 8 1
11 9 3
11 10 2
12 0 2
12 1 3
12 2 3
12 3 2
12 4 2
12 5 2
12 6 2
12 7 2
12 8 1
12 9 3
12 10 1
12 11 3
13 0 3
13 1 1
13 2 2
13 3 1
13 4 1
13 5 2
13 6 1
13 7 2
13 8 2
13 9 1
13 10 2
13 11 2
13 12 3
14 0 3
14 1 1
14 2 2
14 3 1
14 4 1
14 5 2
14 6 2
14 7 2
14 8 3
14 9 3
14 10 1
14 11 3
14 12 2
14 13 2
